data;
param V := 121;
param E := 
0 12 1
0 24 1
0 36 1
0 48 1
0 60 1
0 72 1
0 84 1
0 96 1
0 108 1
0 120 1
0 1 1
0 2 1
0 3 1
0 4 1
0 5 1
0 6 1
0 7 1
0 8 1
0 9 1
0 10 1
0 11 1
0 22 1
0 33 1
0 44 1
0 55 1
0 66 1
0 77 1
0 88 1
0 99 1
0 110 1
1 13 1
1 25 1
1 37 1
1 49 1
1 61 1
1 73 1
1 85 1
1 97 1
1 109 1
1 11 1
1 2 1
1 3 1
1 4 1
1 5 1
1 6 1
1 7 1
1 8 1
1 9 1
1 10 1
1 12 1
1 23 1
1 34 1
1 45 1
1 56 1
1 67 1
1 78 1
1 89 1
1 100 1
1 111 1
1 0 1
2 14 1
2 26 1
2 38 1
2 50 1
2 62 1
2 74 1
2 86 1
2 98 1
2 12 1
2 22 1
2 3 1
2 4 1
2 5 1
2 6 1
2 7 1
2 8 1
2 9 1
2 10 1
2 13 1
2 24 1
2 35 1
2 46 1
2 57 1
2 68 1
2 79 1
2 90 1
2 101 1
2 112 1
2 1 1
2 0 1
3 15 1
3 27 1
3 39 1
3 51 1
3 63 1
3 75 1
3 87 1
3 13 1
3 23 1
3 33 1
3 4 1
3 5 1
3 6 1
3 7 1
3 8 1
3 9 1
3 10 1
3 14 1
3 25 1
3 36 1
3 47 1
3 58 1
3 69 1
3 80 1
3 91 1
3 102 1
3 113 1
3 2 1
3 1 1
3 0 1
4 16 1
4 28 1
4 40 1
4 52 1
4 64 1
4 76 1
4 14 1
4 24 1
4 34 1
4 44 1
4 5 1
4 6 1
4 7 1
4 8 1
4 9 1
4 10 1
4 15 1
4 26 1
4 37 1
4 48 1
4 59 1
4 70 1
4 81 1
4 92 1
4 103 1
4 114 1
4 3 1
4 2 1
4 1 1
4 0 1
5 17 1
5 29 1
5 41 1
5 53 1
5 65 1
5 15 1
5 25 1
5 35 1
5 45 1
5 55 1
5 6 1
5 7 1
5 8 1
5 9 1
5 10 1
5 16 1
5 27 1
5 38 1
5 49 1
5 60 1
5 71 1
5 82 1
5 93 1
5 104 1
5 115 1
5 4 1
5 3 1
5 2 1
5 1 1
5 0 1
6 18 1
6 30 1
6 42 1
6 54 1
6 16 1
6 26 1
6 36 1
6 46 1
6 56 1
6 66 1
6 7 1
6 8 1
6 9 1
6 10 1
6 17 1
6 28 1
6 39 1
6 50 1
6 61 1
6 72 1
6 83 1
6 94 1
6 105 1
6 116 1
6 5 1
6 4 1
6 3 1
6 2 1
6 1 1
6 0 1
7 19 1
7 31 1
7 43 1
7 17 1
7 27 1
7 37 1
7 47 1
7 57 1
7 67 1
7 77 1
7 8 1
7 9 1
7 10 1
7 18 1
7 29 1
7 40 1
7 51 1
7 62 1
7 73 1
7 84 1
7 95 1
7 106 1
7 117 1
7 6 1
7 5 1
7 4 1
7 3 1
7 2 1
7 1 1
7 0 1
8 20 1
8 32 1
8 18 1
8 28 1
8 38 1
8 48 1
8 58 1
8 68 1
8 78 1
8 88 1
8 9 1
8 10 1
8 19 1
8 30 1
8 41 1
8 52 1
8 63 1
8 74 1
8 85 1
8 96 1
8 107 1
8 118 1
8 7 1
8 6 1
8 5 1
8 4 1
8 3 1
8 2 1
8 1 1
8 0 1
9 21 1
9 19 1
9 29 1
9 39 1
9 49 1
9 59 1
9 69 1
9 79 1
9 89 1
9 99 1
9 10 1
9 20 1
9 31 1
9 42 1
9 53 1
9 64 1
9 75 1
9 86 1
9 97 1
9 108 1
9 119 1
9 8 1
9 7 1
9 6 1
9 5 1
9 4 1
9 3 1
9 2 1
9 1 1
9 0 1
10 20 1
10 30 1
10 40 1
10 50 1
10 60 1
10 70 1
10 80 1
10 90 1
10 100 1
10 110 1
10 21 1
10 32 1
10 43 1
10 54 1
10 65 1
10 76 1
10 87 1
10 98 1
10 109 1
10 120 1
10 9 1
10 8 1
10 7 1
10 6 1
10 5 1
10 4 1
10 3 1
10 2 1
10 1 1
10 0 1
11 23 1
11 35 1
11 47 1
11 59 1
11 71 1
11 83 1
11 95 1
11 107 1
11 119 1
11 12 1
11 13 1
11 14 1
11 15 1
11 16 1
11 17 1
11 18 1
11 19 1
11 20 1
11 21 1
11 22 1
11 33 1
11 44 1
11 55 1
11 66 1
11 77 1
11 88 1
11 99 1
11 110 1
11 1 1
11 0 1
12 24 1
12 36 1
12 48 1
12 60 1
12 72 1
12 84 1
12 96 1
12 108 1
12 120 1
12 22 1
12 13 1
12 14 1
12 15 1
12 16 1
12 17 1
12 18 1
12 19 1
12 20 1
12 21 1
12 23 1
12 34 1
12 45 1
12 56 1
12 67 1
12 78 1
12 89 1
12 100 1
12 111 1
12 11 1
12 2 1
12 1 1
12 0 1
13 25 1
13 37 1
13 49 1
13 61 1
13 73 1
13 85 1
13 97 1
13 109 1
13 23 1
13 33 1
13 14 1
13 15 1
13 16 1
13 17 1
13 18 1
13 19 1
13 20 1
13 21 1
13 24 1
13 35 1
13 46 1
13 57 1
13 68 1
13 79 1
13 90 1
13 101 1
13 112 1
13 12 1
13 11 1
13 3 1
13 2 1
13 1 1
14 26 1
14 38 1
14 50 1
14 62 1
14 74 1
14 86 1
14 98 1
14 24 1
14 34 1
14 44 1
14 15 1
14 16 1
14 17 1
14 18 1
14 19 1
14 20 1
14 21 1
14 25 1
14 36 1
14 47 1
14 58 1
14 69 1
14 80 1
14 91 1
14 102 1
14 113 1
14 13 1
14 12 1
14 11 1
14 4 1
14 3 1
14 2 1
15 27 1
15 39 1
15 51 1
15 63 1
15 75 1
15 87 1
15 25 1
15 35 1
15 45 1
15 55 1
15 16 1
15 17 1
15 18 1
15 19 1
15 20 1
15 21 1
15 26 1
15 37 1
15 48 1
15 59 1
15 70 1
15 81 1
15 92 1
15 103 1
15 114 1
15 14 1
15 13 1
15 12 1
15 11 1
15 5 1
15 4 1
15 3 1
16 28 1
16 40 1
16 52 1
16 64 1
16 76 1
16 26 1
16 36 1
16 46 1
16 56 1
16 66 1
16 17 1
16 18 1
16 19 1
16 20 1
16 21 1
16 27 1
16 38 1
16 49 1
16 60 1
16 71 1
16 82 1
16 93 1
16 104 1
16 115 1
16 15 1
16 14 1
16 13 1
16 12 1
16 11 1
16 6 1
16 5 1
16 4 1
17 29 1
17 41 1
17 53 1
17 65 1
17 27 1
17 37 1
17 47 1
17 57 1
17 67 1
17 77 1
17 18 1
17 19 1
17 20 1
17 21 1
17 28 1
17 39 1
17 50 1
17 61 1
17 72 1
17 83 1
17 94 1
17 105 1
17 116 1
17 16 1
17 15 1
17 14 1
17 13 1
17 12 1
17 11 1
17 7 1
17 6 1
17 5 1
18 30 1
18 42 1
18 54 1
18 28 1
18 38 1
18 48 1
18 58 1
18 68 1
18 78 1
18 88 1
18 19 1
18 20 1
18 21 1
18 29 1
18 40 1
18 51 1
18 62 1
18 73 1
18 84 1
18 95 1
18 106 1
18 117 1
18 17 1
18 16 1
18 15 1
18 14 1
18 13 1
18 12 1
18 11 1
18 8 1
18 7 1
18 6 1
19 31 1
19 43 1
19 29 1
19 39 1
19 49 1
19 59 1
19 69 1
19 79 1
19 89 1
19 99 1
19 20 1
19 21 1
19 30 1
19 41 1
19 52 1
19 63 1
19 74 1
19 85 1
19 96 1
19 107 1
19 118 1
19 18 1
19 17 1
19 16 1
19 15 1
19 14 1
19 13 1
19 12 1
19 11 1
19 9 1
19 8 1
19 7 1
20 32 1
20 30 1
20 40 1
20 50 1
20 60 1
20 70 1
20 80 1
20 90 1
20 100 1
20 110 1
20 21 1
20 31 1
20 42 1
20 53 1
20 64 1
20 75 1
20 86 1
20 97 1
20 108 1
20 119 1
20 19 1
20 18 1
20 17 1
20 16 1
20 15 1
20 14 1
20 13 1
20 12 1
20 11 1
20 10 1
20 9 1
20 8 1
21 31 1
21 41 1
21 51 1
21 61 1
21 71 1
21 81 1
21 91 1
21 101 1
21 111 1
21 32 1
21 43 1
21 54 1
21 65 1
21 76 1
21 87 1
21 98 1
21 109 1
21 120 1
21 20 1
21 19 1
21 18 1
21 17 1
21 16 1
21 15 1
21 14 1
21 13 1
21 12 1
21 11 1
21 10 1
21 9 1
22 34 1
22 46 1
22 58 1
22 70 1
22 82 1
22 94 1
22 106 1
22 118 1
22 23 1
22 24 1
22 25 1
22 26 1
22 27 1
22 28 1
22 29 1
22 30 1
22 31 1
22 32 1
22 33 1
22 44 1
22 55 1
22 66 1
22 77 1
22 88 1
22 99 1
22 110 1
22 12 1
22 11 1
22 2 1
22 0 1
23 35 1
23 47 1
23 59 1
23 71 1
23 83 1
23 95 1
23 107 1
23 119 1
23 33 1
23 24 1
23 25 1
23 26 1
23 27 1
23 28 1
23 29 1
23 30 1
23 31 1
23 32 1
23 34 1
23 45 1
23 56 1
23 67 1
23 78 1
23 89 1
23 100 1
23 111 1
23 22 1
23 13 1
23 12 1
23 11 1
23 3 1
23 1 1
24 36 1
24 48 1
24 60 1
24 72 1
24 84 1
24 96 1
24 108 1
24 120 1
24 34 1
24 44 1
24 25 1
24 26 1
24 27 1
24 28 1
24 29 1
24 30 1
24 31 1
24 32 1
24 35 1
24 46 1
24 57 1
24 68 1
24 79 1
24 90 1
24 101 1
24 112 1
24 23 1
24 22 1
24 14 1
24 13 1
24 12 1
24 4 1
24 2 1
24 0 1
25 37 1
25 49 1
25 61 1
25 73 1
25 85 1
25 97 1
25 109 1
25 35 1
25 45 1
25 55 1
25 26 1
25 27 1
25 28 1
25 29 1
25 30 1
25 31 1
25 32 1
25 36 1
25 47 1
25 58 1
25 69 1
25 80 1
25 91 1
25 102 1
25 113 1
25 24 1
25 23 1
25 22 1
25 15 1
25 14 1
25 13 1
25 5 1
25 3 1
25 1 1
26 38 1
26 50 1
26 62 1
26 74 1
26 86 1
26 98 1
26 36 1
26 46 1
26 56 1
26 66 1
26 27 1
26 28 1
26 29 1
26 30 1
26 31 1
26 32 1
26 37 1
26 48 1
26 59 1
26 70 1
26 81 1
26 92 1
26 103 1
26 114 1
26 25 1
26 24 1
26 23 1
26 22 1
26 16 1
26 15 1
26 14 1
26 6 1
26 4 1
26 2 1
27 39 1
27 51 1
27 63 1
27 75 1
27 87 1
27 37 1
27 47 1
27 57 1
27 67 1
27 77 1
27 28 1
27 29 1
27 30 1
27 31 1
27 32 1
27 38 1
27 49 1
27 60 1
27 71 1
27 82 1
27 93 1
27 104 1
27 115 1
27 26 1
27 25 1
27 24 1
27 23 1
27 22 1
27 17 1
27 16 1
27 15 1
27 7 1
27 5 1
27 3 1
28 40 1
28 52 1
28 64 1
28 76 1
28 38 1
28 48 1
28 58 1
28 68 1
28 78 1
28 88 1
28 29 1
28 30 1
28 31 1
28 32 1
28 39 1
28 50 1
28 61 1
28 72 1
28 83 1
28 94 1
28 105 1
28 116 1
28 27 1
28 26 1
28 25 1
28 24 1
28 23 1
28 22 1
28 18 1
28 17 1
28 16 1
28 8 1
28 6 1
28 4 1
29 41 1
29 53 1
29 65 1
29 39 1
29 49 1
29 59 1
29 69 1
29 79 1
29 89 1
29 99 1
29 30 1
29 31 1
29 32 1
29 40 1
29 51 1
29 62 1
29 73 1
29 84 1
29 95 1
29 106 1
29 117 1
29 28 1
29 27 1
29 26 1
29 25 1
29 24 1
29 23 1
29 22 1
29 19 1
29 18 1
29 17 1
29 9 1
29 7 1
29 5 1
30 42 1
30 54 1
30 40 1
30 50 1
30 60 1
30 70 1
30 80 1
30 90 1
30 100 1
30 110 1
30 31 1
30 32 1
30 41 1
30 52 1
30 63 1
30 74 1
30 85 1
30 96 1
30 107 1
30 118 1
30 29 1
30 28 1
30 27 1
30 26 1
30 25 1
30 24 1
30 23 1
30 22 1
30 20 1
30 19 1
30 18 1
30 10 1
30 8 1
30 6 1
31 43 1
31 41 1
31 51 1
31 61 1
31 71 1
31 81 1
31 91 1
31 101 1
31 111 1
31 32 1
31 42 1
31 53 1
31 64 1
31 75 1
31 86 1
31 97 1
31 108 1
31 119 1
31 30 1
31 29 1
31 28 1
31 27 1
31 26 1
31 25 1
31 24 1
31 23 1
31 22 1
31 21 1
31 20 1
31 19 1
31 9 1
31 7 1
32 42 1
32 52 1
32 62 1
32 72 1
32 82 1
32 92 1
32 102 1
32 112 1
32 43 1
32 54 1
32 65 1
32 76 1
32 87 1
32 98 1
32 109 1
32 120 1
32 31 1
32 30 1
32 29 1
32 28 1
32 27 1
32 26 1
32 25 1
32 24 1
32 23 1
32 22 1
32 21 1
32 20 1
32 10 1
32 8 1
33 45 1
33 57 1
33 69 1
33 81 1
33 93 1
33 105 1
33 117 1
33 34 1
33 35 1
33 36 1
33 37 1
33 38 1
33 39 1
33 40 1
33 41 1
33 42 1
33 43 1
33 44 1
33 55 1
33 66 1
33 77 1
33 88 1
33 99 1
33 110 1
33 23 1
33 22 1
33 13 1
33 11 1
33 3 1
33 0 1
34 46 1
34 58 1
34 70 1
34 82 1
34 94 1
34 106 1
34 118 1
34 44 1
34 35 1
34 36 1
34 37 1
34 38 1
34 39 1
34 40 1
34 41 1
34 42 1
34 43 1
34 45 1
34 56 1
34 67 1
34 78 1
34 89 1
34 100 1
34 111 1
34 33 1
34 24 1
34 23 1
34 22 1
34 14 1
34 12 1
34 4 1
34 1 1
35 47 1
35 59 1
35 71 1
35 83 1
35 95 1
35 107 1
35 119 1
35 45 1
35 55 1
35 36 1
35 37 1
35 38 1
35 39 1
35 40 1
35 41 1
35 42 1
35 43 1
35 46 1
35 57 1
35 68 1
35 79 1
35 90 1
35 101 1
35 112 1
35 34 1
35 33 1
35 25 1
35 24 1
35 23 1
35 15 1
35 13 1
35 11 1
35 5 1
35 2 1
36 48 1
36 60 1
36 72 1
36 84 1
36 96 1
36 108 1
36 120 1
36 46 1
36 56 1
36 66 1
36 37 1
36 38 1
36 39 1
36 40 1
36 41 1
36 42 1
36 43 1
36 47 1
36 58 1
36 69 1
36 80 1
36 91 1
36 102 1
36 113 1
36 35 1
36 34 1
36 33 1
36 26 1
36 25 1
36 24 1
36 16 1
36 14 1
36 12 1
36 6 1
36 3 1
36 0 1
37 49 1
37 61 1
37 73 1
37 85 1
37 97 1
37 109 1
37 47 1
37 57 1
37 67 1
37 77 1
37 38 1
37 39 1
37 40 1
37 41 1
37 42 1
37 43 1
37 48 1
37 59 1
37 70 1
37 81 1
37 92 1
37 103 1
37 114 1
37 36 1
37 35 1
37 34 1
37 33 1
37 27 1
37 26 1
37 25 1
37 17 1
37 15 1
37 13 1
37 7 1
37 4 1
37 1 1
38 50 1
38 62 1
38 74 1
38 86 1
38 98 1
38 48 1
38 58 1
38 68 1
38 78 1
38 88 1
38 39 1
38 40 1
38 41 1
38 42 1
38 43 1
38 49 1
38 60 1
38 71 1
38 82 1
38 93 1
38 104 1
38 115 1
38 37 1
38 36 1
38 35 1
38 34 1
38 33 1
38 28 1
38 27 1
38 26 1
38 18 1
38 16 1
38 14 1
38 8 1
38 5 1
38 2 1
39 51 1
39 63 1
39 75 1
39 87 1
39 49 1
39 59 1
39 69 1
39 79 1
39 89 1
39 99 1
39 40 1
39 41 1
39 42 1
39 43 1
39 50 1
39 61 1
39 72 1
39 83 1
39 94 1
39 105 1
39 116 1
39 38 1
39 37 1
39 36 1
39 35 1
39 34 1
39 33 1
39 29 1
39 28 1
39 27 1
39 19 1
39 17 1
39 15 1
39 9 1
39 6 1
39 3 1
40 52 1
40 64 1
40 76 1
40 50 1
40 60 1
40 70 1
40 80 1
40 90 1
40 100 1
40 110 1
40 41 1
40 42 1
40 43 1
40 51 1
40 62 1
40 73 1
40 84 1
40 95 1
40 106 1
40 117 1
40 39 1
40 38 1
40 37 1
40 36 1
40 35 1
40 34 1
40 33 1
40 30 1
40 29 1
40 28 1
40 20 1
40 18 1
40 16 1
40 10 1
40 7 1
40 4 1
41 53 1
41 65 1
41 51 1
41 61 1
41 71 1
41 81 1
41 91 1
41 101 1
41 111 1
41 42 1
41 43 1
41 52 1
41 63 1
41 74 1
41 85 1
41 96 1
41 107 1
41 118 1
41 40 1
41 39 1
41 38 1
41 37 1
41 36 1
41 35 1
41 34 1
41 33 1
41 31 1
41 30 1
41 29 1
41 21 1
41 19 1
41 17 1
41 8 1
41 5 1
42 54 1
42 52 1
42 62 1
42 72 1
42 82 1
42 92 1
42 102 1
42 112 1
42 43 1
42 53 1
42 64 1
42 75 1
42 86 1
42 97 1
42 108 1
42 119 1
42 41 1
42 40 1
42 39 1
42 38 1
42 37 1
42 36 1
42 35 1
42 34 1
42 33 1
42 32 1
42 31 1
42 30 1
42 20 1
42 18 1
42 9 1
42 6 1
43 53 1
43 63 1
43 73 1
43 83 1
43 93 1
43 103 1
43 113 1
43 54 1
43 65 1
43 76 1
43 87 1
43 98 1
43 109 1
43 120 1
43 42 1
43 41 1
43 40 1
43 39 1
43 38 1
43 37 1
43 36 1
43 35 1
43 34 1
43 33 1
43 32 1
43 31 1
43 21 1
43 19 1
43 10 1
43 7 1
44 56 1
44 68 1
44 80 1
44 92 1
44 104 1
44 116 1
44 45 1
44 46 1
44 47 1
44 48 1
44 49 1
44 50 1
44 51 1
44 52 1
44 53 1
44 54 1
44 55 1
44 66 1
44 77 1
44 88 1
44 99 1
44 110 1
44 34 1
44 33 1
44 24 1
44 22 1
44 14 1
44 11 1
44 4 1
44 0 1
45 57 1
45 69 1
45 81 1
45 93 1
45 105 1
45 117 1
45 55 1
45 46 1
45 47 1
45 48 1
45 49 1
45 50 1
45 51 1
45 52 1
45 53 1
45 54 1
45 56 1
45 67 1
45 78 1
45 89 1
45 100 1
45 111 1
45 44 1
45 35 1
45 34 1
45 33 1
45 25 1
45 23 1
45 15 1
45 12 1
45 5 1
45 1 1
46 58 1
46 70 1
46 82 1
46 94 1
46 106 1
46 118 1
46 56 1
46 66 1
46 47 1
46 48 1
46 49 1
46 50 1
46 51 1
46 52 1
46 53 1
46 54 1
46 57 1
46 68 1
46 79 1
46 90 1
46 101 1
46 112 1
46 45 1
46 44 1
46 36 1
46 35 1
46 34 1
46 26 1
46 24 1
46 22 1
46 16 1
46 13 1
46 6 1
46 2 1
47 59 1
47 71 1
47 83 1
47 95 1
47 107 1
47 119 1
47 57 1
47 67 1
47 77 1
47 48 1
47 49 1
47 50 1
47 51 1
47 52 1
47 53 1
47 54 1
47 58 1
47 69 1
47 80 1
47 91 1
47 102 1
47 113 1
47 46 1
47 45 1
47 44 1
47 37 1
47 36 1
47 35 1
47 27 1
47 25 1
47 23 1
47 17 1
47 14 1
47 11 1
47 7 1
47 3 1
48 60 1
48 72 1
48 84 1
48 96 1
48 108 1
48 120 1
48 58 1
48 68 1
48 78 1
48 88 1
48 49 1
48 50 1
48 51 1
48 52 1
48 53 1
48 54 1
48 59 1
48 70 1
48 81 1
48 92 1
48 103 1
48 114 1
48 47 1
48 46 1
48 45 1
48 44 1
48 38 1
48 37 1
48 36 1
48 28 1
48 26 1
48 24 1
48 18 1
48 15 1
48 12 1
48 8 1
48 4 1
48 0 1
49 61 1
49 73 1
49 85 1
49 97 1
49 109 1
49 59 1
49 69 1
49 79 1
49 89 1
49 99 1
49 50 1
49 51 1
49 52 1
49 53 1
49 54 1
49 60 1
49 71 1
49 82 1
49 93 1
49 104 1
49 115 1
49 48 1
49 47 1
49 46 1
49 45 1
49 44 1
49 39 1
49 38 1
49 37 1
49 29 1
49 27 1
49 25 1
49 19 1
49 16 1
49 13 1
49 9 1
49 5 1
49 1 1
50 62 1
50 74 1
50 86 1
50 98 1
50 60 1
50 70 1
50 80 1
50 90 1
50 100 1
50 110 1
50 51 1
50 52 1
50 53 1
50 54 1
50 61 1
50 72 1
50 83 1
50 94 1
50 105 1
50 116 1
50 49 1
50 48 1
50 47 1
50 46 1
50 45 1
50 44 1
50 40 1
50 39 1
50 38 1
50 30 1
50 28 1
50 26 1
50 20 1
50 17 1
50 14 1
50 10 1
50 6 1
50 2 1
51 63 1
51 75 1
51 87 1
51 61 1
51 71 1
51 81 1
51 91 1
51 101 1
51 111 1
51 52 1
51 53 1
51 54 1
51 62 1
51 73 1
51 84 1
51 95 1
51 106 1
51 117 1
51 50 1
51 49 1
51 48 1
51 47 1
51 46 1
51 45 1
51 44 1
51 41 1
51 40 1
51 39 1
51 31 1
51 29 1
51 27 1
51 21 1
51 18 1
51 15 1
51 7 1
51 3 1
52 64 1
52 76 1
52 62 1
52 72 1
52 82 1
52 92 1
52 102 1
52 112 1
52 53 1
52 54 1
52 63 1
52 74 1
52 85 1
52 96 1
52 107 1
52 118 1
52 51 1
52 50 1
52 49 1
52 48 1
52 47 1
52 46 1
52 45 1
52 44 1
52 42 1
52 41 1
52 40 1
52 32 1
52 30 1
52 28 1
52 19 1
52 16 1
52 8 1
52 4 1
53 65 1
53 63 1
53 73 1
53 83 1
53 93 1
53 103 1
53 113 1
53 54 1
53 64 1
53 75 1
53 86 1
53 97 1
53 108 1
53 119 1
53 52 1
53 51 1
53 50 1
53 49 1
53 48 1
53 47 1
53 46 1
53 45 1
53 44 1
53 43 1
53 42 1
53 41 1
53 31 1
53 29 1
53 20 1
53 17 1
53 9 1
53 5 1
54 64 1
54 74 1
54 84 1
54 94 1
54 104 1
54 114 1
54 65 1
54 76 1
54 87 1
54 98 1
54 109 1
54 120 1
54 53 1
54 52 1
54 51 1
54 50 1
54 49 1
54 48 1
54 47 1
54 46 1
54 45 1
54 44 1
54 43 1
54 42 1
54 32 1
54 30 1
54 21 1
54 18 1
54 10 1
54 6 1
55 67 1
55 79 1
55 91 1
55 103 1
55 115 1
55 56 1
55 57 1
55 58 1
55 59 1
55 60 1
55 61 1
55 62 1
55 63 1
55 64 1
55 65 1
55 66 1
55 77 1
55 88 1
55 99 1
55 110 1
55 45 1
55 44 1
55 35 1
55 33 1
55 25 1
55 22 1
55 15 1
55 11 1
55 5 1
55 0 1
56 68 1
56 80 1
56 92 1
56 104 1
56 116 1
56 66 1
56 57 1
56 58 1
56 59 1
56 60 1
56 61 1
56 62 1
56 63 1
56 64 1
56 65 1
56 67 1
56 78 1
56 89 1
56 100 1
56 111 1
56 55 1
56 46 1
56 45 1
56 44 1
56 36 1
56 34 1
56 26 1
56 23 1
56 16 1
56 12 1
56 6 1
56 1 1
57 69 1
57 81 1
57 93 1
57 105 1
57 117 1
57 67 1
57 77 1
57 58 1
57 59 1
57 60 1
57 61 1
57 62 1
57 63 1
57 64 1
57 65 1
57 68 1
57 79 1
57 90 1
57 101 1
57 112 1
57 56 1
57 55 1
57 47 1
57 46 1
57 45 1
57 37 1
57 35 1
57 33 1
57 27 1
57 24 1
57 17 1
57 13 1
57 7 1
57 2 1
58 70 1
58 82 1
58 94 1
58 106 1
58 118 1
58 68 1
58 78 1
58 88 1
58 59 1
58 60 1
58 61 1
58 62 1
58 63 1
58 64 1
58 65 1
58 69 1
58 80 1
58 91 1
58 102 1
58 113 1
58 57 1
58 56 1
58 55 1
58 48 1
58 47 1
58 46 1
58 38 1
58 36 1
58 34 1
58 28 1
58 25 1
58 22 1
58 18 1
58 14 1
58 8 1
58 3 1
59 71 1
59 83 1
59 95 1
59 107 1
59 119 1
59 69 1
59 79 1
59 89 1
59 99 1
59 60 1
59 61 1
59 62 1
59 63 1
59 64 1
59 65 1
59 70 1
59 81 1
59 92 1
59 103 1
59 114 1
59 58 1
59 57 1
59 56 1
59 55 1
59 49 1
59 48 1
59 47 1
59 39 1
59 37 1
59 35 1
59 29 1
59 26 1
59 23 1
59 19 1
59 15 1
59 11 1
59 9 1
59 4 1
60 72 1
60 84 1
60 96 1
60 108 1
60 120 1
60 70 1
60 80 1
60 90 1
60 100 1
60 110 1
60 61 1
60 62 1
60 63 1
60 64 1
60 65 1
60 71 1
60 82 1
60 93 1
60 104 1
60 115 1
60 59 1
60 58 1
60 57 1
60 56 1
60 55 1
60 50 1
60 49 1
60 48 1
60 40 1
60 38 1
60 36 1
60 30 1
60 27 1
60 24 1
60 20 1
60 16 1
60 12 1
60 10 1
60 5 1
60 0 1
61 73 1
61 85 1
61 97 1
61 109 1
61 71 1
61 81 1
61 91 1
61 101 1
61 111 1
61 62 1
61 63 1
61 64 1
61 65 1
61 72 1
61 83 1
61 94 1
61 105 1
61 116 1
61 60 1
61 59 1
61 58 1
61 57 1
61 56 1
61 55 1
61 51 1
61 50 1
61 49 1
61 41 1
61 39 1
61 37 1
61 31 1
61 28 1
61 25 1
61 21 1
61 17 1
61 13 1
61 6 1
61 1 1
62 74 1
62 86 1
62 98 1
62 72 1
62 82 1
62 92 1
62 102 1
62 112 1
62 63 1
62 64 1
62 65 1
62 73 1
62 84 1
62 95 1
62 106 1
62 117 1
62 61 1
62 60 1
62 59 1
62 58 1
62 57 1
62 56 1
62 55 1
62 52 1
62 51 1
62 50 1
62 42 1
62 40 1
62 38 1
62 32 1
62 29 1
62 26 1
62 18 1
62 14 1
62 7 1
62 2 1
63 75 1
63 87 1
63 73 1
63 83 1
63 93 1
63 103 1
63 113 1
63 64 1
63 65 1
63 74 1
63 85 1
63 96 1
63 107 1
63 118 1
63 62 1
63 61 1
63 60 1
63 59 1
63 58 1
63 57 1
63 56 1
63 55 1
63 53 1
63 52 1
63 51 1
63 43 1
63 41 1
63 39 1
63 30 1
63 27 1
63 19 1
63 15 1
63 8 1
63 3 1
64 76 1
64 74 1
64 84 1
64 94 1
64 104 1
64 114 1
64 65 1
64 75 1
64 86 1
64 97 1
64 108 1
64 119 1
64 63 1
64 62 1
64 61 1
64 60 1
64 59 1
64 58 1
64 57 1
64 56 1
64 55 1
64 54 1
64 53 1
64 52 1
64 42 1
64 40 1
64 31 1
64 28 1
64 20 1
64 16 1
64 9 1
64 4 1
65 75 1
65 85 1
65 95 1
65 105 1
65 115 1
65 76 1
65 87 1
65 98 1
65 109 1
65 120 1
65 64 1
65 63 1
65 62 1
65 61 1
65 60 1
65 59 1
65 58 1
65 57 1
65 56 1
65 55 1
65 54 1
65 53 1
65 43 1
65 41 1
65 32 1
65 29 1
65 21 1
65 17 1
65 10 1
65 5 1
66 78 1
66 90 1
66 102 1
66 114 1
66 67 1
66 68 1
66 69 1
66 70 1
66 71 1
66 72 1
66 73 1
66 74 1
66 75 1
66 76 1
66 77 1
66 88 1
66 99 1
66 110 1
66 56 1
66 55 1
66 46 1
66 44 1
66 36 1
66 33 1
66 26 1
66 22 1
66 16 1
66 11 1
66 6 1
66 0 1
67 79 1
67 91 1
67 103 1
67 115 1
67 77 1
67 68 1
67 69 1
67 70 1
67 71 1
67 72 1
67 73 1
67 74 1
67 75 1
67 76 1
67 78 1
67 89 1
67 100 1
67 111 1
67 66 1
67 57 1
67 56 1
67 55 1
67 47 1
67 45 1
67 37 1
67 34 1
67 27 1
67 23 1
67 17 1
67 12 1
67 7 1
67 1 1
68 80 1
68 92 1
68 104 1
68 116 1
68 78 1
68 88 1
68 69 1
68 70 1
68 71 1
68 72 1
68 73 1
68 74 1
68 75 1
68 76 1
68 79 1
68 90 1
68 101 1
68 112 1
68 67 1
68 66 1
68 58 1
68 57 1
68 56 1
68 48 1
68 46 1
68 44 1
68 38 1
68 35 1
68 28 1
68 24 1
68 18 1
68 13 1
68 8 1
68 2 1
69 81 1
69 93 1
69 105 1
69 117 1
69 79 1
69 89 1
69 99 1
69 70 1
69 71 1
69 72 1
69 73 1
69 74 1
69 75 1
69 76 1
69 80 1
69 91 1
69 102 1
69 113 1
69 68 1
69 67 1
69 66 1
69 59 1
69 58 1
69 57 1
69 49 1
69 47 1
69 45 1
69 39 1
69 36 1
69 33 1
69 29 1
69 25 1
69 19 1
69 14 1
69 9 1
69 3 1
70 82 1
70 94 1
70 106 1
70 118 1
70 80 1
70 90 1
70 100 1
70 110 1
70 71 1
70 72 1
70 73 1
70 74 1
70 75 1
70 76 1
70 81 1
70 92 1
70 103 1
70 114 1
70 69 1
70 68 1
70 67 1
70 66 1
70 60 1
70 59 1
70 58 1
70 50 1
70 48 1
70 46 1
70 40 1
70 37 1
70 34 1
70 30 1
70 26 1
70 22 1
70 20 1
70 15 1
70 10 1
70 4 1
71 83 1
71 95 1
71 107 1
71 119 1
71 81 1
71 91 1
71 101 1
71 111 1
71 72 1
71 73 1
71 74 1
71 75 1
71 76 1
71 82 1
71 93 1
71 104 1
71 115 1
71 70 1
71 69 1
71 68 1
71 67 1
71 66 1
71 61 1
71 60 1
71 59 1
71 51 1
71 49 1
71 47 1
71 41 1
71 38 1
71 35 1
71 31 1
71 27 1
71 23 1
71 21 1
71 16 1
71 11 1
71 5 1
72 84 1
72 96 1
72 108 1
72 120 1
72 82 1
72 92 1
72 102 1
72 112 1
72 73 1
72 74 1
72 75 1
72 76 1
72 83 1
72 94 1
72 105 1
72 116 1
72 71 1
72 70 1
72 69 1
72 68 1
72 67 1
72 66 1
72 62 1
72 61 1
72 60 1
72 52 1
72 50 1
72 48 1
72 42 1
72 39 1
72 36 1
72 32 1
72 28 1
72 24 1
72 17 1
72 12 1
72 6 1
72 0 1
73 85 1
73 97 1
73 109 1
73 83 1
73 93 1
73 103 1
73 113 1
73 74 1
73 75 1
73 76 1
73 84 1
73 95 1
73 106 1
73 117 1
73 72 1
73 71 1
73 70 1
73 69 1
73 68 1
73 67 1
73 66 1
73 63 1
73 62 1
73 61 1
73 53 1
73 51 1
73 49 1
73 43 1
73 40 1
73 37 1
73 29 1
73 25 1
73 18 1
73 13 1
73 7 1
73 1 1
74 86 1
74 98 1
74 84 1
74 94 1
74 104 1
74 114 1
74 75 1
74 76 1
74 85 1
74 96 1
74 107 1
74 118 1
74 73 1
74 72 1
74 71 1
74 70 1
74 69 1
74 68 1
74 67 1
74 66 1
74 64 1
74 63 1
74 62 1
74 54 1
74 52 1
74 50 1
74 41 1
74 38 1
74 30 1
74 26 1
74 19 1
74 14 1
74 8 1
74 2 1
75 87 1
75 85 1
75 95 1
75 105 1
75 115 1
75 76 1
75 86 1
75 97 1
75 108 1
75 119 1
75 74 1
75 73 1
75 72 1
75 71 1
75 70 1
75 69 1
75 68 1
75 67 1
75 66 1
75 65 1
75 64 1
75 63 1
75 53 1
75 51 1
75 42 1
75 39 1
75 31 1
75 27 1
75 20 1
75 15 1
75 9 1
75 3 1
76 86 1
76 96 1
76 106 1
76 116 1
76 87 1
76 98 1
76 109 1
76 120 1
76 75 1
76 74 1
76 73 1
76 72 1
76 71 1
76 70 1
76 69 1
76 68 1
76 67 1
76 66 1
76 65 1
76 64 1
76 54 1
76 52 1
76 43 1
76 40 1
76 32 1
76 28 1
76 21 1
76 16 1
76 10 1
76 4 1
77 89 1
77 101 1
77 113 1
77 78 1
77 79 1
77 80 1
77 81 1
77 82 1
77 83 1
77 84 1
77 85 1
77 86 1
77 87 1
77 88 1
77 99 1
77 110 1
77 67 1
77 66 1
77 57 1
77 55 1
77 47 1
77 44 1
77 37 1
77 33 1
77 27 1
77 22 1
77 17 1
77 11 1
77 7 1
77 0 1
78 90 1
78 102 1
78 114 1
78 88 1
78 79 1
78 80 1
78 81 1
78 82 1
78 83 1
78 84 1
78 85 1
78 86 1
78 87 1
78 89 1
78 100 1
78 111 1
78 77 1
78 68 1
78 67 1
78 66 1
78 58 1
78 56 1
78 48 1
78 45 1
78 38 1
78 34 1
78 28 1
78 23 1
78 18 1
78 12 1
78 8 1
78 1 1
79 91 1
79 103 1
79 115 1
79 89 1
79 99 1
79 80 1
79 81 1
79 82 1
79 83 1
79 84 1
79 85 1
79 86 1
79 87 1
79 90 1
79 101 1
79 112 1
79 78 1
79 77 1
79 69 1
79 68 1
79 67 1
79 59 1
79 57 1
79 55 1
79 49 1
79 46 1
79 39 1
79 35 1
79 29 1
79 24 1
79 19 1
79 13 1
79 9 1
79 2 1
80 92 1
80 104 1
80 116 1
80 90 1
80 100 1
80 110 1
80 81 1
80 82 1
80 83 1
80 84 1
80 85 1
80 86 1
80 87 1
80 91 1
80 102 1
80 113 1
80 79 1
80 78 1
80 77 1
80 70 1
80 69 1
80 68 1
80 60 1
80 58 1
80 56 1
80 50 1
80 47 1
80 44 1
80 40 1
80 36 1
80 30 1
80 25 1
80 20 1
80 14 1
80 10 1
80 3 1
81 93 1
81 105 1
81 117 1
81 91 1
81 101 1
81 111 1
81 82 1
81 83 1
81 84 1
81 85 1
81 86 1
81 87 1
81 92 1
81 103 1
81 114 1
81 80 1
81 79 1
81 78 1
81 77 1
81 71 1
81 70 1
81 69 1
81 61 1
81 59 1
81 57 1
81 51 1
81 48 1
81 45 1
81 41 1
81 37 1
81 33 1
81 31 1
81 26 1
81 21 1
81 15 1
81 4 1
82 94 1
82 106 1
82 118 1
82 92 1
82 102 1
82 112 1
82 83 1
82 84 1
82 85 1
82 86 1
82 87 1
82 93 1
82 104 1
82 115 1
82 81 1
82 80 1
82 79 1
82 78 1
82 77 1
82 72 1
82 71 1
82 70 1
82 62 1
82 60 1
82 58 1
82 52 1
82 49 1
82 46 1
82 42 1
82 38 1
82 34 1
82 32 1
82 27 1
82 22 1
82 16 1
82 5 1
83 95 1
83 107 1
83 119 1
83 93 1
83 103 1
83 113 1
83 84 1
83 85 1
83 86 1
83 87 1
83 94 1
83 105 1
83 116 1
83 82 1
83 81 1
83 80 1
83 79 1
83 78 1
83 77 1
83 73 1
83 72 1
83 71 1
83 63 1
83 61 1
83 59 1
83 53 1
83 50 1
83 47 1
83 43 1
83 39 1
83 35 1
83 28 1
83 23 1
83 17 1
83 11 1
83 6 1
84 96 1
84 108 1
84 120 1
84 94 1
84 104 1
84 114 1
84 85 1
84 86 1
84 87 1
84 95 1
84 106 1
84 117 1
84 83 1
84 82 1
84 81 1
84 80 1
84 79 1
84 78 1
84 77 1
84 74 1
84 73 1
84 72 1
84 64 1
84 62 1
84 60 1
84 54 1
84 51 1
84 48 1
84 40 1
84 36 1
84 29 1
84 24 1
84 18 1
84 12 1
84 7 1
84 0 1
85 97 1
85 109 1
85 95 1
85 105 1
85 115 1
85 86 1
85 87 1
85 96 1
85 107 1
85 118 1
85 84 1
85 83 1
85 82 1
85 81 1
85 80 1
85 79 1
85 78 1
85 77 1
85 75 1
85 74 1
85 73 1
85 65 1
85 63 1
85 61 1
85 52 1
85 49 1
85 41 1
85 37 1
85 30 1
85 25 1
85 19 1
85 13 1
85 8 1
85 1 1
86 98 1
86 96 1
86 106 1
86 116 1
86 87 1
86 97 1
86 108 1
86 119 1
86 85 1
86 84 1
86 83 1
86 82 1
86 81 1
86 80 1
86 79 1
86 78 1
86 77 1
86 76 1
86 75 1
86 74 1
86 64 1
86 62 1
86 53 1
86 50 1
86 42 1
86 38 1
86 31 1
86 26 1
86 20 1
86 14 1
86 9 1
86 2 1
87 97 1
87 107 1
87 117 1
87 98 1
87 109 1
87 120 1
87 86 1
87 85 1
87 84 1
87 83 1
87 82 1
87 81 1
87 80 1
87 79 1
87 78 1
87 77 1
87 76 1
87 75 1
87 65 1
87 63 1
87 54 1
87 51 1
87 43 1
87 39 1
87 32 1
87 27 1
87 21 1
87 15 1
87 10 1
87 3 1
88 100 1
88 112 1
88 89 1
88 90 1
88 91 1
88 92 1
88 93 1
88 94 1
88 95 1
88 96 1
88 97 1
88 98 1
88 99 1
88 110 1
88 78 1
88 77 1
88 68 1
88 66 1
88 58 1
88 55 1
88 48 1
88 44 1
88 38 1
88 33 1
88 28 1
88 22 1
88 18 1
88 11 1
88 8 1
88 0 1
89 101 1
89 113 1
89 99 1
89 90 1
89 91 1
89 92 1
89 93 1
89 94 1
89 95 1
89 96 1
89 97 1
89 98 1
89 100 1
89 111 1
89 88 1
89 79 1
89 78 1
89 77 1
89 69 1
89 67 1
89 59 1
89 56 1
89 49 1
89 45 1
89 39 1
89 34 1
89 29 1
89 23 1
89 19 1
89 12 1
89 9 1
89 1 1
90 102 1
90 114 1
90 100 1
90 110 1
90 91 1
90 92 1
90 93 1
90 94 1
90 95 1
90 96 1
90 97 1
90 98 1
90 101 1
90 112 1
90 89 1
90 88 1
90 80 1
90 79 1
90 78 1
90 70 1
90 68 1
90 66 1
90 60 1
90 57 1
90 50 1
90 46 1
90 40 1
90 35 1
90 30 1
90 24 1
90 20 1
90 13 1
90 10 1
90 2 1
91 103 1
91 115 1
91 101 1
91 111 1
91 92 1
91 93 1
91 94 1
91 95 1
91 96 1
91 97 1
91 98 1
91 102 1
91 113 1
91 90 1
91 89 1
91 88 1
91 81 1
91 80 1
91 79 1
91 71 1
91 69 1
91 67 1
91 61 1
91 58 1
91 55 1
91 51 1
91 47 1
91 41 1
91 36 1
91 31 1
91 25 1
91 21 1
91 14 1
91 3 1
92 104 1
92 116 1
92 102 1
92 112 1
92 93 1
92 94 1
92 95 1
92 96 1
92 97 1
92 98 1
92 103 1
92 114 1
92 91 1
92 90 1
92 89 1
92 88 1
92 82 1
92 81 1
92 80 1
92 72 1
92 70 1
92 68 1
92 62 1
92 59 1
92 56 1
92 52 1
92 48 1
92 44 1
92 42 1
92 37 1
92 32 1
92 26 1
92 15 1
92 4 1
93 105 1
93 117 1
93 103 1
93 113 1
93 94 1
93 95 1
93 96 1
93 97 1
93 98 1
93 104 1
93 115 1
93 92 1
93 91 1
93 90 1
93 89 1
93 88 1
93 83 1
93 82 1
93 81 1
93 73 1
93 71 1
93 69 1
93 63 1
93 60 1
93 57 1
93 53 1
93 49 1
93 45 1
93 43 1
93 38 1
93 33 1
93 27 1
93 16 1
93 5 1
94 106 1
94 118 1
94 104 1
94 114 1
94 95 1
94 96 1
94 97 1
94 98 1
94 105 1
94 116 1
94 93 1
94 92 1
94 91 1
94 90 1
94 89 1
94 88 1
94 84 1
94 83 1
94 82 1
94 74 1
94 72 1
94 70 1
94 64 1
94 61 1
94 58 1
94 54 1
94 50 1
94 46 1
94 39 1
94 34 1
94 28 1
94 22 1
94 17 1
94 6 1
95 107 1
95 119 1
95 105 1
95 115 1
95 96 1
95 97 1
95 98 1
95 106 1
95 117 1
95 94 1
95 93 1
95 92 1
95 91 1
95 90 1
95 89 1
95 88 1
95 85 1
95 84 1
95 83 1
95 75 1
95 73 1
95 71 1
95 65 1
95 62 1
95 59 1
95 51 1
95 47 1
95 40 1
95 35 1
95 29 1
95 23 1
95 18 1
95 11 1
95 7 1
96 108 1
96 120 1
96 106 1
96 116 1
96 97 1
96 98 1
96 107 1
96 118 1
96 95 1
96 94 1
96 93 1
96 92 1
96 91 1
96 90 1
96 89 1
96 88 1
96 86 1
96 85 1
96 84 1
96 76 1
96 74 1
96 72 1
96 63 1
96 60 1
96 52 1
96 48 1
96 41 1
96 36 1
96 30 1
96 24 1
96 19 1
96 12 1
96 8 1
96 0 1
97 109 1
97 107 1
97 117 1
97 98 1
97 108 1
97 119 1
97 96 1
97 95 1
97 94 1
97 93 1
97 92 1
97 91 1
97 90 1
97 89 1
97 88 1
97 87 1
97 86 1
97 85 1
97 75 1
97 73 1
97 64 1
97 61 1
97 53 1
97 49 1
97 42 1
97 37 1
97 31 1
97 25 1
97 20 1
97 13 1
97 9 1
97 1 1
98 108 1
98 118 1
98 109 1
98 120 1
98 97 1
98 96 1
98 95 1
98 94 1
98 93 1
98 92 1
98 91 1
98 90 1
98 89 1
98 88 1
98 87 1
98 86 1
98 76 1
98 74 1
98 65 1
98 62 1
98 54 1
98 50 1
98 43 1
98 38 1
98 32 1
98 26 1
98 21 1
98 14 1
98 10 1
98 2 1
99 111 1
99 100 1
99 101 1
99 102 1
99 103 1
99 104 1
99 105 1
99 106 1
99 107 1
99 108 1
99 109 1
99 110 1
99 89 1
99 88 1
99 79 1
99 77 1
99 69 1
99 66 1
99 59 1
99 55 1
99 49 1
99 44 1
99 39 1
99 33 1
99 29 1
99 22 1
99 19 1
99 11 1
99 9 1
99 0 1
100 112 1
100 110 1
100 101 1
100 102 1
100 103 1
100 104 1
100 105 1
100 106 1
100 107 1
100 108 1
100 109 1
100 111 1
100 99 1
100 90 1
100 89 1
100 88 1
100 80 1
100 78 1
100 70 1
100 67 1
100 60 1
100 56 1
100 50 1
100 45 1
100 40 1
100 34 1
100 30 1
100 23 1
100 20 1
100 12 1
100 10 1
100 1 1
101 113 1
101 111 1
101 102 1
101 103 1
101 104 1
101 105 1
101 106 1
101 107 1
101 108 1
101 109 1
101 112 1
101 100 1
101 99 1
101 91 1
101 90 1
101 89 1
101 81 1
101 79 1
101 77 1
101 71 1
101 68 1
101 61 1
101 57 1
101 51 1
101 46 1
101 41 1
101 35 1
101 31 1
101 24 1
101 21 1
101 13 1
101 2 1
102 114 1
102 112 1
102 103 1
102 104 1
102 105 1
102 106 1
102 107 1
102 108 1
102 109 1
102 113 1
102 101 1
102 100 1
102 99 1
102 92 1
102 91 1
102 90 1
102 82 1
102 80 1
102 78 1
102 72 1
102 69 1
102 66 1
102 62 1
102 58 1
102 52 1
102 47 1
102 42 1
102 36 1
102 32 1
102 25 1
102 14 1
102 3 1
103 115 1
103 113 1
103 104 1
103 105 1
103 106 1
103 107 1
103 108 1
103 109 1
103 114 1
103 102 1
103 101 1
103 100 1
103 99 1
103 93 1
103 92 1
103 91 1
103 83 1
103 81 1
103 79 1
103 73 1
103 70 1
103 67 1
103 63 1
103 59 1
103 55 1
103 53 1
103 48 1
103 43 1
103 37 1
103 26 1
103 15 1
103 4 1
104 116 1
104 114 1
104 105 1
104 106 1
104 107 1
104 108 1
104 109 1
104 115 1
104 103 1
104 102 1
104 101 1
104 100 1
104 99 1
104 94 1
104 93 1
104 92 1
104 84 1
104 82 1
104 80 1
104 74 1
104 71 1
104 68 1
104 64 1
104 60 1
104 56 1
104 54 1
104 49 1
104 44 1
104 38 1
104 27 1
104 16 1
104 5 1
105 117 1
105 115 1
105 106 1
105 107 1
105 108 1
105 109 1
105 116 1
105 104 1
105 103 1
105 102 1
105 101 1
105 100 1
105 99 1
105 95 1
105 94 1
105 93 1
105 85 1
105 83 1
105 81 1
105 75 1
105 72 1
105 69 1
105 65 1
105 61 1
105 57 1
105 50 1
105 45 1
105 39 1
105 33 1
105 28 1
105 17 1
105 6 1
106 118 1
106 116 1
106 107 1
106 108 1
106 109 1
106 117 1
106 105 1
106 104 1
106 103 1
106 102 1
106 101 1
106 100 1
106 99 1
106 96 1
106 95 1
106 94 1
106 86 1
106 84 1
106 82 1
106 76 1
106 73 1
106 70 1
106 62 1
106 58 1
106 51 1
106 46 1
106 40 1
106 34 1
106 29 1
106 22 1
106 18 1
106 7 1
107 119 1
107 117 1
107 108 1
107 109 1
107 118 1
107 106 1
107 105 1
107 104 1
107 103 1
107 102 1
107 101 1
107 100 1
107 99 1
107 97 1
107 96 1
107 95 1
107 87 1
107 85 1
107 83 1
107 74 1
107 71 1
107 63 1
107 59 1
107 52 1
107 47 1
107 41 1
107 35 1
107 30 1
107 23 1
107 19 1
107 11 1
107 8 1
108 120 1
108 118 1
108 109 1
108 119 1
108 107 1
108 106 1
108 105 1
108 104 1
108 103 1
108 102 1
108 101 1
108 100 1
108 99 1
108 98 1
108 97 1
108 96 1
108 86 1
108 84 1
108 75 1
108 72 1
108 64 1
108 60 1
108 53 1
108 48 1
108 42 1
108 36 1
108 31 1
108 24 1
108 20 1
108 12 1
108 9 1
108 0 1
109 119 1
109 120 1
109 108 1
109 107 1
109 106 1
109 105 1
109 104 1
109 103 1
109 102 1
109 101 1
109 100 1
109 99 1
109 98 1
109 97 1
109 87 1
109 85 1
109 76 1
109 73 1
109 65 1
109 61 1
109 54 1
109 49 1
109 43 1
109 37 1
109 32 1
109 25 1
109 21 1
109 13 1
109 10 1
109 1 1
110 111 1
110 112 1
110 113 1
110 114 1
110 115 1
110 116 1
110 117 1
110 118 1
110 119 1
110 120 1
110 100 1
110 99 1
110 90 1
110 88 1
110 80 1
110 77 1
110 70 1
110 66 1
110 60 1
110 55 1
110 50 1
110 44 1
110 40 1
110 33 1
110 30 1
110 22 1
110 20 1
110 11 1
110 10 1
110 0 1
111 112 1
111 113 1
111 114 1
111 115 1
111 116 1
111 117 1
111 118 1
111 119 1
111 120 1
111 110 1
111 101 1
111 100 1
111 99 1
111 91 1
111 89 1
111 81 1
111 78 1
111 71 1
111 67 1
111 61 1
111 56 1
111 51 1
111 45 1
111 41 1
111 34 1
111 31 1
111 23 1
111 21 1
111 12 1
111 1 1
112 113 1
112 114 1
112 115 1
112 116 1
112 117 1
112 118 1
112 119 1
112 120 1
112 111 1
112 110 1
112 102 1
112 101 1
112 100 1
112 92 1
112 90 1
112 88 1
112 82 1
112 79 1
112 72 1
112 68 1
112 62 1
112 57 1
112 52 1
112 46 1
112 42 1
112 35 1
112 32 1
112 24 1
112 13 1
112 2 1
113 114 1
113 115 1
113 116 1
113 117 1
113 118 1
113 119 1
113 120 1
113 112 1
113 111 1
113 110 1
113 103 1
113 102 1
113 101 1
113 93 1
113 91 1
113 89 1
113 83 1
113 80 1
113 77 1
113 73 1
113 69 1
113 63 1
113 58 1
113 53 1
113 47 1
113 43 1
113 36 1
113 25 1
113 14 1
113 3 1
114 115 1
114 116 1
114 117 1
114 118 1
114 119 1
114 120 1
114 113 1
114 112 1
114 111 1
114 110 1
114 104 1
114 103 1
114 102 1
114 94 1
114 92 1
114 90 1
114 84 1
114 81 1
114 78 1
114 74 1
114 70 1
114 66 1
114 64 1
114 59 1
114 54 1
114 48 1
114 37 1
114 26 1
114 15 1
114 4 1
115 116 1
115 117 1
115 118 1
115 119 1
115 120 1
115 114 1
115 113 1
115 112 1
115 111 1
115 110 1
115 105 1
115 104 1
115 103 1
115 95 1
115 93 1
115 91 1
115 85 1
115 82 1
115 79 1
115 75 1
115 71 1
115 67 1
115 65 1
115 60 1
115 55 1
115 49 1
115 38 1
115 27 1
115 16 1
115 5 1
116 117 1
116 118 1
116 119 1
116 120 1
116 115 1
116 114 1
116 113 1
116 112 1
116 111 1
116 110 1
116 106 1
116 105 1
116 104 1
116 96 1
116 94 1
116 92 1
116 86 1
116 83 1
116 80 1
116 76 1
116 72 1
116 68 1
116 61 1
116 56 1
116 50 1
116 44 1
116 39 1
116 28 1
116 17 1
116 6 1
117 118 1
117 119 1
117 120 1
117 116 1
117 115 1
117 114 1
117 113 1
117 112 1
117 111 1
117 110 1
117 107 1
117 106 1
117 105 1
117 97 1
117 95 1
117 93 1
117 87 1
117 84 1
117 81 1
117 73 1
117 69 1
117 62 1
117 57 1
117 51 1
117 45 1
117 40 1
117 33 1
117 29 1
117 18 1
117 7 1
118 119 1
118 120 1
118 117 1
118 116 1
118 115 1
118 114 1
118 113 1
118 112 1
118 111 1
118 110 1
118 108 1
118 107 1
118 106 1
118 98 1
118 96 1
118 94 1
118 85 1
118 82 1
118 74 1
118 70 1
118 63 1
118 58 1
118 52 1
118 46 1
118 41 1
118 34 1
118 30 1
118 22 1
118 19 1
118 8 1
119 120 1
119 118 1
119 117 1
119 116 1
119 115 1
119 114 1
119 113 1
119 112 1
119 111 1
119 110 1
119 109 1
119 108 1
119 107 1
119 97 1
119 95 1
119 86 1
119 83 1
119 75 1
119 71 1
119 64 1
119 59 1
119 53 1
119 47 1
119 42 1
119 35 1
119 31 1
119 23 1
119 20 1
119 11 1
119 9 1
120 119 1
120 118 1
120 117 1
120 116 1
120 115 1
120 114 1
120 113 1
120 112 1
120 111 1
120 110 1
120 109 1
120 108 1
120 98 1
120 96 1
120 87 1
120 84 1
120 76 1
120 72 1
120 65 1
120 60 1
120 54 1
120 48 1
120 43 1
120 36 1
120 32 1
120 24 1
120 21 1
120 12 1
120 10 1
120 0 1
;
end;